Nodes = {"Palo-Alto", "San-Diego", "Boulder", "Washington", "Atlanta", "Urbana-Champaign", "Ann-Arbor", "Lincoln", "Princeton", "Ithaca", "Pittsburgh", "Houston", "Salt-Lake-City", "Seattle"};
Arcs = {<"Palo-Alto","San-Diego",42,0>, <"Palo-Alto","Boulder",42,17>, <"Palo-Alto","Washington",42,45>, <"Palo-Alto","Atlanta",42,38>, <"Palo-Alto","Urbana-Champaign",42,34>, <"Palo-Alto","Ann-Arbor",42,39>, <"Palo-Alto","Lincoln",42,26>, <"Palo-Alto","Princeton",42,48>, <"Palo-Alto","Ithaca",42,46>, <"Palo-Alto","Pittsburgh",42,43>, <"Palo-Alto","Houston",42,28>, <"Palo-Alto","Salt-Lake-City",42,0>, <"Palo-Alto","Seattle",42,0>, <"San-Diego","Palo-Alto",42,0>, <"San-Diego","Boulder",42,14>, <"San-Diego","Washington",42,41>, <"San-Diego","Atlanta",42,33>, <"San-Diego","Urbana-Champaign",42,30>, <"San-Diego","Ann-Arbor",42,35>, <"San-Diego","Lincoln",42,22>, <"San-Diego","Princeton",42,43>, <"San-Diego","Ithaca",42,42>, <"San-Diego","Pittsburgh",42,38>, <"San-Diego","Houston",42,0>, <"San-Diego","Salt-Lake-City",42,10>, <"San-Diego","Seattle",42,0>, <"Boulder","Palo-Alto",42,17>, <"Boulder","San-Diego",42,14>, <"Boulder","Washington",42,28>, <"Boulder","Atlanta",42,22>, <"Boulder","Urbana-Champaign",42,17>, <"Boulder","Ann-Arbor",42,22>, <"Boulder","Lincoln",42,0>, <"Boulder","Princeton",42,31>, <"Boulder","Ithaca",42,29>, <"Boulder","Pittsburgh",42,26>, <"Boulder","Houston",42,0>, <"Boulder","Salt-Lake-City",42,0>, <"Boulder","Seattle",42,19>, <"Washington","Palo-Alto",42,45>, <"Washington","San-Diego",42,41>, <"Washington","Boulder",42,28>, <"Washington","Atlanta",42,9>, <"Washington","Urbana-Champaign",42,11>, <"Washington","Ann-Arbor",42,7>, <"Washington","Lincoln",42,19>, <"Washington","Princeton",42,0>, <"Washington","Ithaca",42,0>, <"Washington","Pittsburgh",42,3>, <"Washington","Houston",42,0>, <"Washington","Salt-Lake-City",42,35>, <"Washington","Seattle",42,46>, <"Atlanta","Palo-Alto",42,38>, <"Atlanta","San-Diego",42,33>, <"Atlanta","Boulder",42,22>, <"Atlanta","Washington",42,9>, <"Atlanta","Urbana-Champaign",42,8>, <"Atlanta","Ann-Arbor",42,9>, <"Atlanta","Lincoln",42,14>, <"Atlanta","Princeton",42,12>, <"Atlanta","Ithaca",42,12>, <"Atlanta","Pittsburgh",42,0>, <"Atlanta","Houston",42,0>, <"Atlanta","Salt-Lake-City",42,28>, <"Atlanta","Seattle",42,40>, <"Urbana-Champaign","Palo-Alto",42,34>, <"Urbana-Champaign","San-Diego",42,30>, <"Urbana-Champaign","Boulder",42,17>, <"Urbana-Champaign","Washington",42,11>, <"Urbana-Champaign","Atlanta",42,8>, <"Urbana-Champaign","Ann-Arbor",42,5>, <"Urbana-Champaign","Lincoln",42,0>, <"Urbana-Champaign","Princeton",42,14>, <"Urbana-Champaign","Ithaca",42,12>, <"Urbana-Champaign","Pittsburgh",42,0>, <"Urbana-Champaign","Houston",42,13>, <"Urbana-Champaign","Salt-Lake-City",42,23>, <"Urbana-Champaign","Seattle",42,0>, <"Ann-Arbor","Palo-Alto",42,39>, <"Ann-Arbor","San-Diego",42,35>, <"Ann-Arbor","Boulder",42,22>, <"Ann-Arbor","Washington",42,7>, <"Ann-Arbor","Atlanta",42,9>, <"Ann-Arbor","Urbana-Champaign",42,5>, <"Ann-Arbor","Lincoln",42,13>, <"Ann-Arbor","Princeton",42,0>, <"Ann-Arbor","Ithaca",42,0>, <"Ann-Arbor","Pittsburgh",42,4>, <"Ann-Arbor","Houston",42,17>, <"Ann-Arbor","Salt-Lake-City",42,0>, <"Ann-Arbor","Seattle",42,39>, <"Lincoln","Palo-Alto",42,26>, <"Lincoln","San-Diego",42,22>, <"Lincoln","Boulder",42,0>, <"Lincoln","Washington",42,19>, <"Lincoln","Atlanta",42,14>, <"Lincoln","Urbana-Champaign",42,0>, <"Lincoln","Ann-Arbor",42,13>, <"Lincoln","Princeton",42,22>, <"Lincoln","Ithaca",42,20>, <"Lincoln","Pittsburgh",42,17>, <"Lincoln","Houston",42,11>, <"Lincoln","Salt-Lake-City",42,15>, <"Lincoln","Seattle",42,27>, <"Princeton","Palo-Alto",42,48>, <"Princeton","San-Diego",42,43>, <"Princeton","Boulder",42,31>, <"Princeton","Washington",42,0>, <"Princeton","Atlanta",42,12>, <"Princeton","Urbana-Champaign",42,14>, <"Princeton","Ann-Arbor",42,0>, <"Princeton","Lincoln",42,22>, <"Princeton","Ithaca",42,3>, <"Princeton","Pittsburgh",42,0>, <"Princeton","Houston",42,23>, <"Princeton","Salt-Lake-City",42,37>, <"Princeton","Seattle",42,48>, <"Ithaca","Palo-Alto",42,46>, <"Ithaca","San-Diego",42,42>, <"Ithaca","Boulder",42,29>, <"Ithaca","Washington",42,0>, <"Ithaca","Atlanta",42,12>, <"Ithaca","Urbana-Champaign",42,12>, <"Ithaca","Ann-Arbor",42,0>, <"Ithaca","Lincoln",42,20>, <"Ithaca","Princeton",42,3>, <"Ithaca","Pittsburgh",42,0>, <"Ithaca","Houston",42,23>, <"Ithaca","Salt-Lake-City",42,35>, <"Ithaca","Seattle",42,46>, <"Pittsburgh","Palo-Alto",42,43>, <"Pittsburgh","San-Diego",42,38>, <"Pittsburgh","Boulder",42,26>, <"Pittsburgh","Washington",42,3>, <"Pittsburgh","Atlanta",42,0>, <"Pittsburgh","Urbana-Champaign",42,0>, <"Pittsburgh","Ann-Arbor",42,4>, <"Pittsburgh","Lincoln",42,17>, <"Pittsburgh","Princeton",42,0>, <"Pittsburgh","Ithaca",42,0>, <"Pittsburgh","Houston",42,19>, <"Pittsburgh","Salt-Lake-City",42,32>, <"Pittsburgh","Seattle",42,43>, <"Houston","Palo-Alto",42,28>, <"Houston","San-Diego",42,0>, <"Houston","Boulder",42,0>, <"Houston","Washington",42,0>, <"Houston","Atlanta",42,0>, <"Houston","Urbana-Champaign",42,13>, <"Houston","Ann-Arbor",42,17>, <"Houston","Lincoln",42,11>, <"Houston","Princeton",42,23>, <"Houston","Ithaca",42,23>, <"Houston","Pittsburgh",42,19>, <"Houston","Salt-Lake-City",42,20>, <"Houston","Seattle",42,32>, <"Salt-Lake-City","Palo-Alto",42,0>, <"Salt-Lake-City","San-Diego",42,10>, <"Salt-Lake-City","Boulder",42,0>, <"Salt-Lake-City","Washington",42,35>, <"Salt-Lake-City","Atlanta",42,28>, <"Salt-Lake-City","Urbana-Champaign",42,23>, <"Salt-Lake-City","Ann-Arbor",42,0>, <"Salt-Lake-City","Lincoln",42,15>, <"Salt-Lake-City","Princeton",42,37>, <"Salt-Lake-City","Ithaca",42,35>, <"Salt-Lake-City","Pittsburgh",42,32>, <"Salt-Lake-City","Houston",42,20>, <"Salt-Lake-City","Seattle",42,13>, <"Seattle","Palo-Alto",42,0>, <"Seattle","San-Diego",42,0>, <"Seattle","Boulder",42,19>, <"Seattle","Washington",42,46>, <"Seattle","Atlanta",42,40>, <"Seattle","Urbana-Champaign",42,0>, <"Seattle","Ann-Arbor",42,39>, <"Seattle","Lincoln",42,27>, <"Seattle","Princeton",42,48>, <"Seattle","Ithaca",42,46>, <"Seattle","Pittsburgh",42,43>, <"Seattle","Houston",42,32>, <"Seattle","Salt-Lake-City",42,13>};
Demands = {<"Palo-Alto","San-Diego",2,0>, <"Palo-Alto","Boulder",4,0>, <"Palo-Alto","Washington",6,0>, <"Palo-Alto","Atlanta",8,0>, <"Palo-Alto","Urbana-Champaign",10,0>, <"Palo-Alto","Ann-Arbor",12,0>, <"Palo-Alto","Lincoln",14,0>, <"Palo-Alto","Princeton",16,0>, <"Palo-Alto","Ithaca",18,0>, <"Palo-Alto","Pittsburgh",20,0>, <"Palo-Alto","Houston",22,0>, <"Palo-Alto","Salt-Lake-City",24,0>, <"Palo-Alto","Seattle",26,0>, <"San-Diego","Palo-Alto",2,0>, <"San-Diego","Boulder",2,0>, <"San-Diego","Washington",4,0>, <"San-Diego","Atlanta",6,0>, <"San-Diego","Urbana-Champaign",8,0>, <"San-Diego","Ann-Arbor",10,0>, <"San-Diego","Lincoln",12,0>, <"San-Diego","Princeton",14,0>, <"San-Diego","Ithaca",16,0>, <"San-Diego","Pittsburgh",18,0>, <"San-Diego","Houston",20,0>, <"San-Diego","Salt-Lake-City",22,0>, <"San-Diego","Seattle",24,0>, <"Boulder","Palo-Alto",4,0>, <"Boulder","San-Diego",2,0>, <"Boulder","Washington",2,0>, <"Boulder","Atlanta",4,0>, <"Boulder","Urbana-Champaign",6,0>, <"Boulder","Ann-Arbor",8,0>, <"Boulder","Lincoln",10,0>, <"Boulder","Princeton",12,0>, <"Boulder","Ithaca",14,0>, <"Boulder","Pittsburgh",16,0>, <"Boulder","Houston",18,0>, <"Boulder","Salt-Lake-City",20,0>, <"Boulder","Seattle",22,0>, <"Washington","Palo-Alto",6,0>, <"Washington","San-Diego",4,0>, <"Washington","Boulder",2,0>, <"Washington","Atlanta",2,0>, <"Washington","Urbana-Champaign",4,0>, <"Washington","Ann-Arbor",6,0>, <"Washington","Lincoln",8,0>, <"Washington","Princeton",10,0>, <"Washington","Ithaca",12,0>, <"Washington","Pittsburgh",14,0>, <"Washington","Houston",16,0>, <"Washington","Salt-Lake-City",18,0>, <"Washington","Seattle",20,0>, <"Atlanta","Palo-Alto",8,0>, <"Atlanta","San-Diego",6,0>, <"Atlanta","Boulder",4,0>, <"Atlanta","Washington",2,0>, <"Atlanta","Urbana-Champaign",2,0>, <"Atlanta","Ann-Arbor",4,0>, <"Atlanta","Lincoln",6,0>, <"Atlanta","Princeton",8,0>, <"Atlanta","Ithaca",10,0>, <"Atlanta","Pittsburgh",12,0>, <"Atlanta","Houston",14,0>, <"Atlanta","Salt-Lake-City",16,0>, <"Atlanta","Seattle",18,0>, <"Urbana-Champaign","Palo-Alto",10,0>, <"Urbana-Champaign","San-Diego",8,0>, <"Urbana-Champaign","Boulder",6,0>, <"Urbana-Champaign","Washington",4,0>, <"Urbana-Champaign","Atlanta",2,0>, <"Urbana-Champaign","Ann-Arbor",2,0>, <"Urbana-Champaign","Lincoln",4,0>, <"Urbana-Champaign","Princeton",6,0>, <"Urbana-Champaign","Ithaca",8,0>, <"Urbana-Champaign","Pittsburgh",10,0>, <"Urbana-Champaign","Houston",12,0>, <"Urbana-Champaign","Salt-Lake-City",14,0>, <"Urbana-Champaign","Seattle",16,0>, <"Ann-Arbor","Palo-Alto",12,0>, <"Ann-Arbor","San-Diego",10,0>, <"Ann-Arbor","Boulder",8,0>, <"Ann-Arbor","Washington",6,0>, <"Ann-Arbor","Atlanta",4,0>, <"Ann-Arbor","Urbana-Champaign",2,0>, <"Ann-Arbor","Lincoln",2,0>, <"Ann-Arbor","Princeton",4,0>, <"Ann-Arbor","Ithaca",6,0>, <"Ann-Arbor","Pittsburgh",8,0>, <"Ann-Arbor","Houston",10,0>, <"Ann-Arbor","Salt-Lake-City",12,0>, <"Ann-Arbor","Seattle",14,0>, <"Lincoln","Palo-Alto",14,0>, <"Lincoln","San-Diego",12,0>, <"Lincoln","Boulder",10,0>, <"Lincoln","Washington",8,0>, <"Lincoln","Atlanta",6,0>, <"Lincoln","Urbana-Champaign",4,0>, <"Lincoln","Ann-Arbor",2,0>, <"Lincoln","Princeton",2,0>, <"Lincoln","Ithaca",4,0>, <"Lincoln","Pittsburgh",6,0>, <"Lincoln","Houston",8,0>, <"Lincoln","Salt-Lake-City",10,0>, <"Lincoln","Seattle",12,0>, <"Princeton","Palo-Alto",16,0>, <"Princeton","San-Diego",14,0>, <"Princeton","Boulder",12,0>, <"Princeton","Washington",10,0>, <"Princeton","Atlanta",8,0>, <"Princeton","Urbana-Champaign",6,0>, <"Princeton","Ann-Arbor",4,0>, <"Princeton","Lincoln",2,0>, <"Princeton","Ithaca",2,0>, <"Princeton","Pittsburgh",4,0>, <"Princeton","Houston",6,0>, <"Princeton","Salt-Lake-City",8,0>, <"Princeton","Seattle",10,0>, <"Ithaca","Palo-Alto",18,0>, <"Ithaca","San-Diego",16,0>, <"Ithaca","Boulder",14,0>, <"Ithaca","Washington",12,0>, <"Ithaca","Atlanta",10,0>, <"Ithaca","Urbana-Champaign",8,0>, <"Ithaca","Ann-Arbor",6,0>, <"Ithaca","Lincoln",4,0>, <"Ithaca","Princeton",2,0>, <"Ithaca","Pittsburgh",2,0>, <"Ithaca","Houston",4,0>, <"Ithaca","Salt-Lake-City",6,0>, <"Ithaca","Seattle",8,0>, <"Pittsburgh","Palo-Alto",20,0>, <"Pittsburgh","San-Diego",18,0>, <"Pittsburgh","Boulder",16,0>, <"Pittsburgh","Washington",14,0>, <"Pittsburgh","Atlanta",12,0>, <"Pittsburgh","Urbana-Champaign",10,0>, <"Pittsburgh","Ann-Arbor",8,0>, <"Pittsburgh","Lincoln",6,0>, <"Pittsburgh","Princeton",4,0>, <"Pittsburgh","Ithaca",2,0>, <"Pittsburgh","Houston",2,0>, <"Pittsburgh","Salt-Lake-City",4,0>, <"Pittsburgh","Seattle",6,0>, <"Houston","Palo-Alto",22,0>, <"Houston","San-Diego",20,0>, <"Houston","Boulder",18,0>, <"Houston","Washington",16,0>, <"Houston","Atlanta",14,0>, <"Houston","Urbana-Champaign",12,0>, <"Houston","Ann-Arbor",10,0>, <"Houston","Lincoln",8,0>, <"Houston","Princeton",6,0>, <"Houston","Ithaca",4,0>, <"Houston","Pittsburgh",2,0>, <"Houston","Salt-Lake-City",2,0>, <"Houston","Seattle",4,0>, <"Salt-Lake-City","Palo-Alto",24,0>, <"Salt-Lake-City","San-Diego",22,0>, <"Salt-Lake-City","Boulder",20,0>, <"Salt-Lake-City","Washington",18,0>, <"Salt-Lake-City","Atlanta",16,0>, <"Salt-Lake-City","Urbana-Champaign",14,0>, <"Salt-Lake-City","Ann-Arbor",12,0>, <"Salt-Lake-City","Lincoln",10,0>, <"Salt-Lake-City","Princeton",8,0>, <"Salt-Lake-City","Ithaca",6,0>, <"Salt-Lake-City","Pittsburgh",4,0>, <"Salt-Lake-City","Houston",2,0>, <"Salt-Lake-City","Seattle",2,0>, <"Seattle","Palo-Alto",26,0>, <"Seattle","San-Diego",24,0>, <"Seattle","Boulder",22,0>, <"Seattle","Washington",20,0>, <"Seattle","Atlanta",18,0>, <"Seattle","Urbana-Champaign",16,0>, <"Seattle","Ann-Arbor",14,0>, <"Seattle","Lincoln",12,0>, <"Seattle","Princeton",10,0>, <"Seattle","Ithaca",8,0>, <"Seattle","Pittsburgh",6,0>, <"Seattle","Houston",4,0>, <"Seattle","Salt-Lake-City",2,0>};
